n_nodes = 20;
edges = [
	{2, 3, 4, 5, 6, 7, 8, 9, 10, 13, 15, 17},
	{3, 4, 5, 6, 7, 8, 9, 16, 17, 18, 20},
	{4, 5, 8, 9, 17},
	{5, 6, 9, 10, 14},
	{6, 8, 9, 17, 19},
	{7, 8, 9, 10, 13, 14, 15, 19},
	{8, 9, 10, 13, 14, 15, 16, 17},
	{9, 10, 13, 14, 15, 17, 19},
	{10, 13, 15, 17, 19},
	{13, 14, 15, 16, 19},
	{12, 13},
	{ },
	{14, 15, 16, 17, 18, 19, 20},
	{19, 20, 15},
	{17, 18, 19, 20},
	{17, 18, 19, 20},
	{18, 19, 20},
	{19, 20},
	{20},
	{ }
];